benchmarks_vrp/CMT2/fixed_c/CMT2_7.vrp
NAME: CMT2_7
TYPE: CVRP
COMMENT: 835.26 - Cluster Nr.7
DIMENSION: 9
CAPACITY: 140
EDGE_WEIGHT_TYPE: EUC_2D
NODE_COORD_TYPE: TWOD_COORDS
NODE_COORD_SECTION: 
3 44 13
4 52 26
6 50 15
7 48 21
2 40 40
5 65 27
1 55 20
8 50 30
9 62 24
DEPOT_SECTION: 
2
-1
DEMAND_SECTION: 
7 20
8 21
4 13
2 0
1 21
9 8
3 28
6 19
5 14
EOF
