benchmarks_vrp/CMT2/fixed_c/CMT2_7.tour
NAME: CMT2_7 solution
TYPE: TOUR
TOUR_SECTION:
2 5 9 1 6 3 7 4 -1
2 8 -1
-1
EOF